4093601318359849668502,13,1,2,08,10,1,2,015,15,1,2,07,4,1,2,01,8,1,2,02,2,1,2,011,1,1,2,09,10,1,2,01,11,1,2,05,13,1,2,03,15,1,2,09,12,1,2,01,3,1,2,012,14,1,2,07,9,1,2,06,13,1,2,07,9,1,2,012,10,1,2,03,1,1,2,013,5,1,2,012,4,1,2,011,4,1,2,06,11,1,2,05,10,1,2,010,6,1,2,03,4,1,2,010,14,1,2,013,15,1,2,08,1,1,2,04,9,1,2,012,12,1,2,013,14,1,2,015,7,1,2,06,7,1,2,01,5,1,2,01,8,1,2,01,10,1,2,07,7,1,2,014,15,1,2,06,13,1,2,04,14,1,2,03,15,1,2,012,1,1,2,012,3,1,2,013,14,1,2,04,14,1,2,03,15,1,2,03,5,1,2,01,5,1,2,05,11,1,2,0